This is Ipopt version 3.14.11, running with linear solver MUMPS 5.4.1.

Number of nonzeros in equality constraint Jacobian...:    82400
Number of nonzeros in inequality constraint Jacobian.:   243884
Number of nonzeros in Lagrangian Hessian.............:        0

Total number of variables............................:    25243
                     variables with only lower bounds:        0
                variables with lower and upper bounds:        0
                     variables with only upper bounds:        0
Total number of equality constraints.................:    25000
Total number of inequality constraints...............:     1283
        inequality constraints with only lower bounds:       41
   inequality constraints with lower and upper bounds:        0
        inequality constraints with only upper bounds:     1242

iter    objective    inf_pr   inf_du lg(mu)  ||d||  lg(rg) alpha_du alpha_pr  ls
   0  2.9556724e+01 1.41e+00 5.76e+00   0.0 0.00e+00    -  0.00e+00 0.00e+00   0
   1  2.9555708e+01 1.41e+00 5.72e+00  -4.1 1.33e+00    -  1.00e+00 7.44e-03h  1
   2  2.6961326e+01 1.74e+00 5.32e+00  -2.6 4.26e+01    -  1.00e+00 6.84e-02F  1
   3  1.4556896e+01 4.01e+00 8.74e-01  -2.9 1.15e+01    -  3.29e-01 9.98e-01h  1
   4  8.8361030e+00 4.80e+00 2.72e+00  -8.7 6.98e+00    -  2.55e-01 1.00e+00h  1
   5  6.4908711e+00 3.79e+00 2.51e+00  -3.1 9.11e+00    -  6.83e-02 2.33e-01h  1
   6  5.5354757e+00 2.82e+00 1.61e+00  -2.3 6.37e+00    -  6.38e-02 3.53e-01h  1
   7  5.3392230e+00 2.60e+00 1.41e+00  -2.9 3.73e+00    -  1.86e-01 7.62e-02h  1
   8  5.1431795e+00 2.33e+00 5.10e+00  -2.8 9.14e+00    -  1.00e+00 1.01e-01h  1
   9  5.9229680e+00 1.86e+00 4.84e+00  -2.9 8.38e+00    -  3.13e-01 2.15e-01h  1
iter    objective    inf_pr   inf_du lg(mu)  ||d||  lg(rg) alpha_du alpha_pr  ls
  10  8.5708203e+00 1.46e+00 4.96e+00  -2.2 3.73e+00    -  2.88e-01 1.99e-01h  1
  11  1.6407741e+01 9.33e-01 1.26e+00  -1.9 4.90e+00    -  8.01e-02 4.26e-01h  1
  12  1.7502096e+01 6.50e-01 1.65e+00  -2.3 2.74e+00    -  3.32e-01 3.17e-01h  1
  13  2.0108958e+01 5.23e-01 1.87e+00  -1.7 5.75e+00    -  1.61e-01 2.69e-01h  1
  14  1.8695826e+01 3.52e-01 1.74e+00  -4.0 1.68e+00    -  6.47e-01 3.28e-01h  1
  15  1.8029722e+01 2.72e-01 1.23e+00  -8.3 1.48e+00    -  3.07e-01 2.29e-01h  1
  16  1.7957082e+01 2.48e-01 1.03e+00  -2.5 1.92e+00    -  1.55e-01 8.68e-02h  1
  17  1.7525472e+01 2.15e-01 1.09e+00  -3.1 2.86e+00    -  2.14e-01 1.45e-01h  1
  18  1.7321653e+01 1.94e-01 9.38e-01  -3.0 1.81e+00    -  8.49e-02 1.14e-01h  1
  19  1.7497751e+01 1.81e-01 1.05e+00  -2.3 2.99e+00    -  6.80e-02 1.35e-01h  1
iter    objective    inf_pr   inf_du lg(mu)  ||d||  lg(rg) alpha_du alpha_pr  ls
  20  1.8453703e+01 8.51e-01 3.42e+00  -2.3 2.40e+00    -  7.89e-02 5.45e-01h  1
  21  1.8606082e+01 4.14e-01 2.10e+00  -2.5 1.72e+00    -  2.69e-01 5.12e-01h  1
  22  1.7812017e+01 1.50e-01 6.15e-01  -2.7 4.98e-01    -  7.16e-01 7.07e-01h  1
  23  1.7005060e+01 6.71e-02 1.85e-01  -2.9 3.37e-01    -  9.76e-01 1.00e+00h  1
  24  1.6730990e+01 1.06e-02 3.33e-01  -3.1 2.57e-01    -  1.00e+00 8.98e-01h  1
  25  1.6479956e+01 5.28e-03 3.87e-01  -3.5 1.44e-01    -  1.00e+00 8.94e-01h  1
  26  1.6314996e+01 2.94e-03 1.59e-01  -3.8 5.79e-02    -  1.00e+00 9.96e-01h  1
  27  1.6303313e+01 1.08e-03 3.35e-01  -3.8 9.44e-02    -  9.90e-01 4.15e-01h  1
  28  1.6254473e+01 4.61e-03 1.95e-01  -9.8 2.07e-01    -  4.46e-01 4.19e-01h  1
  29  1.6280072e+01 3.24e-02 1.99e-01  -3.8 4.50e-01    -  1.92e-01 4.66e-01h  2
iter    objective    inf_pr   inf_du lg(mu)  ||d||  lg(rg) alpha_du alpha_pr  ls
  30  1.6265154e+01 9.22e-03 1.41e-01  -4.0 1.82e-01    -  4.16e-01 7.29e-01h  1
  31  1.6243265e+01 7.49e-03 5.54e-02  -4.0 1.49e-01    -  1.00e+00 1.00e+00h  1
  32  1.6238964e+01 1.39e-03 1.50e-01  -4.2 5.52e-02    -  9.93e-01 1.00e+00h  1
  33  1.6217378e+01 1.30e-02 5.57e-01  -4.7 1.01e-01    -  1.00e+00 9.17e-01h  1
  34  1.6214800e+01 8.63e-03 4.21e-01  -4.3 7.68e-02    -  1.00e+00 4.52e-01h  1
  35  1.6239394e+01 4.45e-03 1.44e-01  -4.1 5.83e-02    -  1.00e+00 1.00e+00h  1
  36  1.6244643e+01 1.35e-03 3.35e-01  -4.2 5.95e-02    -  1.00e+00 1.00e+00h  1
  37  1.6233069e+01 2.08e-03 1.41e-01  -4.2 4.67e-02    -  1.00e+00 1.00e+00h  1
  38  1.6224940e+01 3.73e-04 2.15e-02  -4.6 2.90e-02    -  1.00e+00 9.19e-01h  1
  39  1.6222015e+01 1.84e-04 5.50e-02  -5.0 2.29e-02    -  9.98e-01 7.90e-01h  1
iter    objective    inf_pr   inf_du lg(mu)  ||d||  lg(rg) alpha_du alpha_pr  ls
  40  1.6220215e+01 6.89e-05 9.15e-03  -5.3 1.78e-02    -  1.00e+00 8.58e-01h  1
  41  1.6219706e+01 7.05e-05 3.33e-02  -5.9 9.57e-03    -  1.00e+00 7.86e-01h  1
  42  1.6220788e+01 1.28e-05 4.21e-02  -6.5 2.17e-02    -  1.00e+00 9.45e-01H  1
  43  1.6218888e+01 1.69e-04 7.63e-03  -6.1 1.77e-02    -  1.00e+00 1.00e+00h  1
  44  1.6219489e+01 2.29e-04 1.18e-01  -6.3 1.09e-02    -  1.00e+00 9.96e-01h  1
  45  1.6218672e+01 2.02e-04 3.83e-03  -6.7 1.03e-02    -  1.00e+00 1.00e+00h  1
  46  1.6219157e+01 2.17e-06 1.24e-03  -7.4 2.02e-03    -  1.00e+00 1.00e+00h  1
  47  1.6219130e+01 6.23e-06 1.05e-02  -8.2 3.09e-02    -  1.00e+00 1.18e-01h  1
  48  1.6219118e+01 1.64e-05 3.74e-02 -11.0 2.75e-02    -  4.44e-01 1.30e-01h  1
  49  1.6219278e+01 6.18e-07 1.19e+00  -7.3 7.79e-03    -  5.55e-02 1.00e+00H  1
iter    objective    inf_pr   inf_du lg(mu)  ||d||  lg(rg) alpha_du alpha_pr  ls
  50  1.6219175e+01 2.12e-06 7.87e-01  -7.1 8.76e-03    -  1.00e+00 3.41e-01h  1
  51  1.6219099e+01 4.15e-05 4.95e-02  -7.2 9.47e-03    -  1.60e-01 9.88e-01h  1
  52  1.6219082e+01 1.14e-05 4.43e-03  -8.2 4.55e-03    -  1.00e+00 1.00e+00h  1
  53  1.6219554e+01 1.08e-06 8.55e-02  -7.8 8.93e-03    -  1.00e+00 1.00e+00H  1
  54  1.6218764e+01 1.33e-04 9.39e-03  -7.9 9.03e-03    -  5.84e-01 1.00e+00h  1
  55  1.6219102e+01 1.89e-05 1.82e-02  -8.0 3.65e-03    -  1.00e+00 1.00e+00h  1
  56  1.6219090e+01 1.43e-05 1.89e-02 -11.0 3.33e-03    -  7.13e-01 3.68e-01h  1
  57  1.6219091e+01 4.76e-06 1.52e-03  -9.6 1.96e-03    -  1.00e+00 1.00e+00h  1
  58  1.6219100e+01 4.72e-08 4.85e-04 -10.2 4.10e-04    -  1.00e+00 1.00e+00h  1
  59  1.6219100e+01 4.32e-11 1.06e-05 -11.0 4.57e-04    -  1.00e+00 1.00e+00H  1
iter    objective    inf_pr   inf_du lg(mu)  ||d||  lg(rg) alpha_du alpha_pr  ls
  60  1.6219099e+01 1.20e-07 1.19e-03 -11.0 3.36e-04    -  1.00e+00 1.00e+00h  1
  61  1.6219140e+01 1.52e-08 2.48e-02 -11.0 2.59e-03    -  1.00e+00 1.00e+00H  1
  62  1.6219070e+01 1.13e-05 2.20e-03 -11.0 2.58e-03    -  6.51e-01 1.00e+00h  1
  63  1.6219098e+01 2.54e-07 1.61e-03 -11.0 7.94e-04    -  1.00e+00 1.00e+00h  1
  64  1.6219099e+01 4.97e-07 2.81e-03 -11.0 8.66e-04    -  1.00e+00 1.00e+00h  1
  65  1.6219101e+01 1.00e-10 2.58e-05 -11.0 8.00e-04    -  1.00e+00 1.00e+00H  1
  66  1.6219099e+01 3.02e-07 5.68e-04 -11.0 7.68e-04    -  1.00e+00 1.00e+00h  1
  67  1.6219099e+01 8.76e-08 8.69e-04 -11.0 3.94e-04    -  1.00e+00 1.00e+00h  1
  68  1.6219099e+01 7.20e-08 7.12e-04 -11.0 3.46e-04    -  1.00e+00 1.00e+00h  1
  69  1.6219100e+01 1.04e-10 5.41e-05 -11.0 6.21e-04    -  1.00e+00 1.00e+00H  1
iter    objective    inf_pr   inf_du lg(mu)  ||d||  lg(rg) alpha_du alpha_pr  ls
  70  1.6219098e+01 3.53e-07 3.16e-04 -11.0 4.62e-04    -  1.00e+00 1.00e+00h  1
  71  1.6219099e+01 4.62e-09 5.27e-06 -11.0 1.79e-04    -  1.00e+00 1.00e+00h  1

Number of Iterations....: 71

                                   (scaled)                 (unscaled)
Objective...............:   1.6219098743773436e+01    1.6219098743773436e+01
Dual infeasibility......:   5.2741486825529383e-06    5.2741486825529383e-06
Constraint violation....:   4.6207004558807083e-09    4.6207004558807083e-09
Variable bound violation:   0.0000000000000000e+00    0.0000000000000000e+00
Complementarity.........:   1.0000000000191595e-11    1.0000000000191595e-11
Overall NLP error.......:   5.2741486825529383e-06    5.2741486825529383e-06


Number of objective function evaluations             = 82
Number of objective gradient evaluations             = 72
Number of equality constraint evaluations            = 83
Number of inequality constraint evaluations          = 83
Number of equality constraint Jacobian evaluations   = 72
Number of inequality constraint Jacobian evaluations = 72
Number of Lagrangian Hessian evaluations             = 0
Total seconds in IPOPT                               = 51.339

EXIT: Optimal Solution Found.
